Set parameter TokenServer to value "opt-license.discovery.wisc.edu"
Set parameter TimeLimit to value 600
Gurobi Optimizer version 9.5.1 build v9.5.1rc2 (linux64)
Thread count: 40 physical cores, 80 logical processors, using up to 32 threads
Optimize a model with 309259 rows, 545292 columns and 1743438 nonzeros
Model fingerprint: 0x39420eb0
Variable types: 542376 continuous, 2916 integer (2916 binary)
Coefficient statistics:
  Matrix range     [1e+00, 1e+03]
  Objective range  [1e+00, 9e+00]
  Bounds range     [1e+00, 1e+00]
  RHS range        [1e+00, 6e+00]
Presolve removed 13940 rows and 41950 columns (presolve time = 6s) ...
Presolve removed 13940 rows and 41950 columns (presolve time = 15s) ...
Presolve removed 13940 rows and 41950 columns (presolve time = 15s) ...
Presolve removed 13940 rows and 41950 columns
Presolve time: 15.35s
Presolved: 295319 rows, 503342 columns, 1669546 nonzeros
Variable types: 500426 continuous, 2916 integer (2916 binary)

Deterministic concurrent LP optimizer: primal and dual simplex
Showing first log only...


Root simplex log...

Iteration    Objective       Primal Inf.    Dual Inf.      Time
       0    1.5240345e+02   2.686875e+02   1.686543e+09     24s
    6008    1.6110142e+02   2.066781e+01   7.035945e+09     25s
Concurrent spin time: 0.05s

Solved with dual simplex

Root relaxation: objective 5.960265e+01, 1995 iterations, 4.73 seconds (2.47 work units)

    Nodes    |    Current Node    |     Objective Bounds      |     Work
 Expl Unexpl |  Obj  Depth IntInf | Incumbent    BestBd   Gap | It/Node Time

     0     0   59.60265    0   53          -   59.60265      -     -   31s
     0     0   60.41575    0   30          -   60.41575      -     -   40s
     0     0   60.41605    0   31          -   60.41605      -     -   43s
     0     0   60.42200    0   30          -   60.42200      -     -   46s
     0     0   60.42200    0   31          -   60.42200      -     -   51s
     0     0   60.42615    0   28          -   60.42615      -     -   55s
     0     0   60.45058    0   31          -   60.45058      -     -   62s
     0     0   60.45058    0   31          -   60.45058      -     -   98s
H    0     0                      61.4066887   60.45058  1.56%     -  101s
     0     0   60.45522    0   49   61.40669   60.45522  1.55%     -  110s
     0     0   60.55382    0   48   61.40669   60.55382  1.39%     -  111s
     0     0   60.55382    0   48   61.40669   60.55382  1.39%     -  112s
H    0     0                      61.2285432   60.67176  0.91%     -  113s
     0     0   60.94277    0  122   61.22854   60.94277  0.47%     -  113s

Cutting planes:
  Gomory: 10
  MIR: 1
  StrongCG: 4
  Flow cover: 1
  GUB cover: 2
  RLT: 2

Explored 1 nodes (5094 simplex iterations) in 113.40 seconds (30.02 work units)
Thread count was 32 (of 80 available processors)

Solution count 2: 61.2285 61.4067 

Optimal solution found (tolerance 1.00e-04)
Best objective 6.122854315746e+01, best bound 6.122439748890e+01, gap 0.0068%
